60
1 0 1
2 1 2
3 2 5
4 1 3
4 3 8
5 3 5
5 4 5
6 0 7
6 1 8
6 3 7
6 4 9
6 5 8
7 0 1
7 1 8
7 3 3
7 6 3
8 4 2
8 5 3
8 6 8
8 7 1
9 0 8
9 2 10
9 3 7
9 4 10
9 6 8
9 7 10
9 8 2
10 0 1
10 2 7
10 4 3
10 5 8
10 7 10
10 8 4
10 9 4
11 0 5
11 2 7
11 6 2
11 9 2
12 1 7
12 4 9
12 5 3
12 6 4
12 8 10
12 11 6
13 5 9
13 11 1
13 12 2
14 4 6
14 5 9
14 6 2
14 7 9
14 8 5
14 9 1
14 10 2
14 12 4
15 0 7
15 1 4
15 3 2
15 4 4
15 7 3
15 8 9
15 14 9
16 0 9
16 5 8
16 7 8
16 9 7
16 11 4
16 12 3
16 14 3
17 0 2
17 1 8
17 2 7
17 3 10
17 4 5
17 8 3
17 9 4
17 10 8
17 14 3
18 0 7
18 3 7
18 5 1
18 8 3
18 9 3
18 10 9
18 11 6
18 12 9
18 15 8
19 0 4
19 6 3
19 7 7
19 8 8
19 10 7
19 11 4
19 14 2
19 15 8
19 16 3
19 17 7
19 18 2
20 0 1
20 1 1
20 3 8
20 6 3
20 9 6
20 11 4
20 13 9
20 17 3
21 0 5
21 2 9
21 3 7
21 5 4
21 7 5
21 8 4
21 15 3
21 16 8
22 0 4
22 1 4
22 2 6
22 3 1
22 5 5
22 6 5
22 12 9
22 14 3
22 16 9
22 19 2
22 20 5
22 21 10
23 1 1
23 4 4
23 5 1
23 6 7
23 7 3
23 8 9
23 9 8
23 12 8
23 17 2
23 21 5
23 22 8
24 1 2
24 7 9
24 8 4
24 11 6
24 12 3
24 14 5
24 15 1
24 16 9
24 17 7
24 18 1
24 19 1
24 21 6
25 3 3
25 4 9
25 5 7
25 8 3
25 9 1
25 12 2
25 13 5
25 16 4
25 17 4
25 18 7
25 23 5
25 24 2
26 1 1
26 2 4
26 4 6
26 7 5
26 9 7
26 10 3
26 14 2
26 16 8
26 20 9
26 21 3
26 22 6
26 23 2
26 25 10
27 0 2
27 2 2
27 5 6
27 6 8
27 7 5
27 9 8
27 10 10
27 11 6
27 12 2
27 15 10
27 16 8
27 20 10
27 22 10
27 26 2
28 0 9
28 2 8
28 3 6
28 7 1
28 9 2
28 10 9
28 13 10
28 20 9
28 21 5
28 23 7
28 25 8
29 1 8
29 5 4
29 9 3
29 10 3
29 11 10
29 12 9
29 13 4
29 16 2
29 18 3
29 24 7
29 25 5
29 27 3
30 1 9
30 2 8
30 6 1
30 7 8
30 8 10
30 10 1
30 11 9
30 12 4
30 13 7
30 14 6
30 15 9
30 16 3
30 19 4
30 21 10
30 25 8
30 26 5
31 1 1
31 5 6
31 7 9
31 8 2
31 12 5
31 16 10
31 17 4
31 18 7
31 19 3
31 21 5
31 23 7
31 25 2
31 27 5
31 28 8
31 30 4
32 2 10
32 4 8
32 5 10
32 9 1
32 10 7
32 11 8
32 12 7
32 13 1
32 14 1
32 16 7
32 17 5
32 21 7
32 22 3
32 26 9
32 30 4
32 31 1
33 0 3
33 2 9
33 3 4
33 5 2
33 6 5
33 9 8
33 11 3
33 14 5
33 16 9
33 17 3
33 18 5
33 19 9
33 20 6
33 21 1
33 25 7
33 26 10
33 29 10
33 30 2
34 0 7
34 5 6
34 6 9
34 8 1
34 10 10
34 13 5
34 14 10
34 16 6
34 17 5
34 20 10
34 23 4
34 24 2
34 26 8
34 27 1
34 33 10
35 1 6
35 3 9
35 5 3
35 7 1
35 9 10
35 10 6
35 11 8
35 12 7
35 13 2
35 14 9
35 17 1
35 18 3
35 22 9
35 23 5
35 27 6
35 32 10
35 33 10
36 6 6
36 8 4
36 9 10
36 11 4
36 13 4
36 14 5
36 16 7
36 20 4
36 22 6
36 25 8
36 26 4
36 27 5
36 33 2
36 34 4
37 0 2
37 5 7
37 6 10
37 7 8
37 14 2
37 15 9
37 18 3
37 20 4
37 23 6
37 24 6
37 26 3
37 31 4
37 35 9
37 36 2
38 0 5
38 2 5
38 4 6
38 7 6
38 12 2
38 13 7
38 14 4
38 16 1
38 17 7
38 18 5
38 20 6
38 21 9
38 23 10
38 25 10
38 27 9
38 32 5
38 34 9
38 36 6
39 0 7
39 4 6
39 5 4
39 6 9
39 7 2
39 8 6
39 9 10
39 12 6
39 20 10
39 21 3
39 23 3
39 25 6
39 26 6
39 30 1
39 31 7
39 32 3
39 34 4
39 36 10
40 0 4
40 2 4
40 4 9
40 5 9
40 6 3
40 12 2
40 15 4
40 19 10
40 20 5
40 25 4
40 26 1
40 27 5
40 30 7
40 35 10
40 36 4
40 37 3
40 39 9
41 2 10
41 4 5
41 5 7
41 8 7
41 15 7
41 17 1
41 18 5
41 19 3
41 23 7
41 25 3
41 30 5
41 31 4
41 32 3
41 33 2
41 34 8
41 37 1
41 38 10
41 40 3
42 0 4
42 2 8
42 3 2
42 7 6
42 8 2
42 9 2
42 11 4
42 14 8
42 15 7
42 16 9
42 17 1
42 18 6
42 21 10
42 24 2
42 26 5
42 28 2
42 31 3
42 33 6
42 34 10
42 35 3
42 36 10
42 38 3
42 39 9
43 1 4
43 3 5
43 5 8
43 8 1
43 14 2
43 15 3
43 18 6
43 19 4
43 21 2
43 22 4
43 24 2
43 26 6
43 28 2
43 32 8
43 34 8
43 36 1
43 38 2
43 42 3
44 1 7
44 5 10
44 7 10
44 9 1
44 13 9
44 16 2
44 18 5
44 19 9
44 20 9
44 21 7
44 22 7
44 24 10
44 31 4
44 33 2
44 35 6
44 36 4
44 37 8
44 38 5
44 41 6
44 42 6
44 43 8
45 0 5
45 1 8
45 3 10
45 5 1
45 6 10
45 8 6
45 9 6
45 13 7
45 15 2
45 17 3
45 18 1
45 20 7
45 22 2
45 23 2
45 24 10
45 25 5
45 26 9
45 29 2
45 32 4
45 33 1
45 35 8
45 36 8
45 39 4
45 40 5
45 41 5
45 42 1
45 43 1
45 44 3
46 1 8
46 2 6
46 5 2
46 10 1
46 12 10
46 13 4
46 14 8
46 15 6
46 16 5
46 20 1
46 24 6
46 25 4
46 29 5
46 30 9
46 32 2
46 33 7
46 34 4
46 35 7
46 37 1
46 39 9
46 43 8
46 44 7
46 45 10
47 0 10
47 1 4
47 2 9
47 3 4
47 4 10
47 6 1
47 7 5
47 12 9
47 15 7
47 17 3
47 19 5
47 20 6
47 22 8
47 23 5
47 32 8
47 33 3
47 34 8
47 35 5
47 36 2
47 37 4
47 39 5
47 41 2
47 42 8
47 43 9
47 44 1
47 45 2
47 46 3
48 0 9
48 4 6
48 8 7
48 9 5
48 13 2
48 14 7
48 16 8
48 17 10
48 24 7
48 26 9
48 28 9
48 33 3
48 34 1
48 35 4
48 36 6
48 41 9
48 47 2
49 1 2
49 3 10
49 4 2
49 5 8
49 6 1
49 7 4
49 9 2
49 11 10
49 15 2
49 16 6
49 17 8
49 22 7
49 23 1
49 24 2
49 26 5
49 28 5
49 34 1
49 40 10
49 42 8
49 43 7
49 44 2
49 45 5
49 46 3
49 48 10
50 0 4
50 2 5
50 3 10
50 4 5
50 5 3
50 10 1
50 13 7
50 14 9
50 16 8
50 18 5
50 20 1
50 22 1
50 24 5
50 27 7
50 29 1
50 31 9
50 32 4
50 33 1
50 34 3
50 35 5
50 38 2
50 42 4
50 44 7
50 49 6
51 0 10
51 1 6
51 4 3
51 6 10
51 7 7
51 8 6
51 9 3
51 10 4
51 12 10
51 13 2
51 15 3
51 16 7
51 17 1
51 21 1
51 23 8
51 25 10
51 26 10
51 28 2
51 29 10
51 33 2
51 35 6
51 36 4
51 37 1
51 38 6
51 39 9
51 45 9
51 46 10
51 47 10
51 48 2
52 0 3
52 1 7
52 2 2
52 3 10
52 5 9
52 6 8
52 8 7
52 9 8
52 11 2
52 13 7
52 15 5
52 18 1
52 19 4
52 20 5
52 25 4
52 26 9
52 28 5
52 29 9
52 30 9
52 32 10
52 33 4
52 34 1
52 35 6
52 36 3
52 40 5
52 45 10
52 46 10
52 48 2
52 49 5
52 51 4
53 2 1
53 3 9
53 4 10
53 5 8
53 8 8
53 9 8
53 10 1
53 12 7
53 14 6
53 15 1
53 16 3
53 18 5
53 21 9
53 26 9
53 27 5
53 30 5
53 32 10
53 35 7
53 36 8
53 38 7
53 40 6
53 41 9
53 42 4
53 43 2
53 48 6
53 49 8
53 51 4
54 4 6
54 5 6
54 8 1
54 9 8
54 14 5
54 15 5
54 18 10
54 19 9
54 23 2
54 24 6
54 25 1
54 27 8
54 28 6
54 29 9
54 31 1
54 32 9
54 37 7
54 38 4
54 40 8
54 42 9
54 43 4
54 45 3
54 46 3
54 52 4
55 1 6
55 3 6
55 11 4
55 13 6
55 16 7
55 20 2
55 21 1
55 24 10
55 25 2
55 27 9
55 31 5
55 34 10
55 36 10
55 39 4
55 41 8
55 42 5
55 43 5
55 46 10
55 48 10
55 50 1
55 51 2
56 1 6
56 6 6
56 8 8
56 10 8
56 15 2
56 16 6
56 17 5
56 18 8
56 19 5
56 21 3
56 31 9
56 32 9
56 34 7
56 36 10
56 38 3
56 39 10
56 40 6
56 41 5
56 42 3
56 43 9
56 47 7
56 48 8
56 50 9
56 55 8
57 0 2
57 1 2
57 2 4
57 3 6
57 7 10
57 9 9
57 11 9
57 14 6
57 15 3
57 19 7
57 20 7
57 21 1
57 22 10
57 23 7
57 31 3
57 37 2
57 40 8
57 43 10
57 44 10
57 45 9
57 47 7
57 48 10
57 49 2
57 52 4
57 54 9
57 55 9
57 56 3
58 7 5
58 9 7
58 11 4
58 12 10
58 13 5
58 15 7
58 16 10
58 17 1
58 18 4
58 19 5
58 21 6
58 22 6
58 23 4
58 24 2
58 26 2
58 27 2
58 28 9
58 29 4
58 30 10
58 31 9
58 32 3
58 33 4
58 35 4
58 36 9
58 39 1
58 41 4
58 42 6
58 43 10
58 44 1
58 45 2
58 46 2
58 47 9
58 49 7
58 51 6
58 53 8
58 54 10
58 55 9
59 2 2
59 4 1
59 5 5
59 7 1
59 10 6
59 11 8
59 13 5
59 14 6
59 20 5
59 21 6
59 23 10
59 26 1
59 27 4
59 30 5
59 31 7
59 33 2
59 35 9
59 36 4
59 38 10
59 39 10
59 40 10
59 47 4
59 48 3
59 49 2
59 50 8
59 56 1
